10J3M/DAT/10J3MUTX-9.dat
10 3
29.1498 5.3991
10.4223 3.2284
47.6391 6.9021
43.304 6.5806
16.2491 4.031
43.7114 6.6115
39.2799 6.2674
34.6593 5.8872
9.8119 3.1324
42.4249 6.5134
13.6383