10J3M/SOL/10J3MUTX-9.sol
solution status: optimal solution found
objective value:                     87.5470169546776
x#1#3                               0.398714600581578 	(obj:0)
x#3#1                              0.0898379917076341 	(obj:0)
x#3#3                               0.910162008292366 	(obj:0)
x#4#1                              0.0360801746702031 	(obj:0)
x#4#2                               0.963919825329797 	(obj:0)
x#6#2                               0.596771564695555 	(obj:0)
x#6#3                               0.403228435304445 	(obj:0)
x#7#1                                               1 	(obj:0)
x#8#2                               0.568958757550291 	(obj:0)
x#8#3                               0.431041242449709 	(obj:0)
x#10#1                                              1 	(obj:0)
z                                    87.5470169546776 	(obj:1)
